Welcome to the CBC MILP Solver 
Version: Trunk
Build Date: Apr 16 2020 

Starting solution of the Linear programming relaxation problem using Primal Simplex

Using Python-MIP package version 1.8.1
Machines:  3 Jobs:  3
Order: 
Job  0 : machine 1 ( 7 ) machine 2 ( 7 ) machine 0 ( 1 ) 
Job  1 : machine 1 ( 4 ) machine 0 ( 3 ) machine 2 ( 7 ) 
Job  2 : machine 1 ( 7 ) machine 2 ( 6 ) machine 0 ( 2 ) 
K:  33
Job  0 , e: machine  0 ( 14 ) machine  1 ( 0 ) machine  2 ( 7 ) 
Job  1 , e: machine  0 ( 4 ) machine  1 ( 0 ) machine  2 ( 7 ) 
Job  2 , e: machine  0 ( 13 ) machine  1 ( 0 ) machine  2 ( 7 ) 
Job  0 , f: machine  0 ( 0 ) machine  1 ( 8 ) machine  2 ( 1 ) 
Job  1 , f: machine  0 ( 7 ) machine  1 ( 10 ) machine  2 ( 0 ) 
Job  2 , f: machine  0 ( 0 ) machine  1 ( 8 ) machine  2 ( 2 ) 
EST and LST:
Job: 0 Machine: 0 EST: 14 LST: 32
Job: 0 Machine: 1 EST: 0 LST: 18
Job: 0 Machine: 2 EST: 7 LST: 25
Job: 1 Machine: 0 EST: 4 LST: 23
Job: 1 Machine: 1 EST: 0 LST: 19
Job: 1 Machine: 2 EST: 7 LST: 26
Job: 2 Machine: 0 EST: 13 LST: 31
Job: 2 Machine: 1 EST: 0 LST: 18
Job: 2 Machine: 2 EST: 7 LST: 25
Order:
Job: 0 Machine: 0 = 2 
Job: 0 Machine: 1 = 0 
Job: 0 Machine: 2 = 1 
Job: 1 Machine: 0 = 1 
Job: 1 Machine: 1 = 0 
Job: 1 Machine: 2 = 2 
Job: 2 Machine: 0 = 2 
Job: 2 Machine: 1 = 0 
Job: 2 Machine: 2 = 1 
Distances:
Job 0, Machine 1 -> Machine 2: distance 7
Job 0, Machine 1 -> Machine 0: distance 14
Job 0, Machine 2 -> Machine 0: distance 7
Job 1, Machine 1 -> Machine 0: distance 4
Job 1, Machine 1 -> Machine 2: distance 7
Job 1, Machine 0 -> Machine 2: distance 3
Job 2, Machine 1 -> Machine 2: distance 7
Job 2, Machine 1 -> Machine 0: distance 13
Job 2, Machine 2 -> Machine 0: distance 6
McCormic linearization
{(0, 1), (1, 2), (0, 2), (2, 0), (2, 2), (1, 0), (1, 1)}
[(0, 1), (1, 2), (0, 2), (2, 0), (2, 2), (1, 0), (1, 1)]
obj:  0.0
solutions:  1
+ 0.25x(0,1) + 0.14285714285714285x(1,1) 
C:  17.181818181818187
x(0,0) = 16.18	 x(0,1) = 2.18	 x(0,2) = 9.18	 
x(1,0) = 7.18	 x(1,1) = 3.18	 x(1,2) = 10.18	 
x(2,0) = 15.18	 x(2,1) = 2.18	 x(2,2) = 9.18	 
y(0,1,0) = 0.00	 y(1,0,0) = 1.00	 
y(0,2,0) = 0.90	 y(2,0,0) = 0.10	 
y(1,2,0) = 0.71	 y(2,1,0) = 0.29	 
y(0,1,1) = 0.76	 y(1,0,1) = 0.24	 
y(0,2,1) = 0.72	 y(2,0,1) = 0.28	 
y(1,2,1) = 0.55	 y(2,1,1) = 0.45	 
y(0,1,2) = 0.69	 y(1,0,2) = 0.31	 
y(0,2,2) = 0.64	 y(2,0,2) = 0.36	 
y(1,2,2) = 0.31	 y(2,1,2) = 0.69	 
{(0, 1), (1, 1), (2, 1)}
obj:  0.41212121212121255
solutions:  1
+ 0.06666666666666668x(0,1) + 0.03809523809523809x(1,1) + 0.06666666666666667x(2,1) 
[(0, 1), (1, 1), (2, 1)]
cliques:  1 mip: 19
C:  22.0
x(0,0) = 17.43	 x(0,1) = 3.43	 x(0,2) = 10.43	 
x(1,0) = 12.00	 x(1,1) = 8.00	 x(1,2) = 15.00	 
x(2,0) = 20.00	 x(2,1) = 7.00	 x(2,2) = 14.00	 
y(0,1,0) = 0.00	 y(1,0,0) = 1.00	 
y(0,2,0) = 0.60	 y(2,0,0) = 0.40	 
y(1,2,0) = 0.38	 y(2,1,0) = 0.62	 
y(0,1,1) = 0.60	 y(1,0,1) = 0.40	 
y(0,2,1) = 0.51	 y(2,0,1) = 0.49	 
y(1,2,1) = 0.24	 y(2,1,1) = 0.76	 
y(0,1,2) = 0.51	 y(1,0,2) = 0.49	 
y(0,2,2) = 0.43	 y(2,0,2) = 0.57	 
y(1,2,2) = 0.49	 y(2,1,2) = 0.51	 
{(0, 1), (1, 1), (2, 1)}
obj:  1.0
erro
[(0, 1), (1, 1), (2, 1)]
cliques:  0 mip: 33
C:  22.32532347504621
x(0,0) = 19.62	 x(0,1) = 5.62	 x(0,2) = 12.62	 
x(1,0) = 12.33	 x(1,1) = 8.16	 x(1,2) = 15.33	 
x(2,0) = 17.72	 x(2,1) = 4.72	 x(2,2) = 11.72	 
y(0,1,0) = 0.00	 y(1,0,0) = 1.00	 
y(0,2,0) = 0.75	 y(2,0,0) = 0.25	 
y(1,2,0) = 0.89	 y(2,1,0) = 0.11	 
y(0,1,1) = 0.28	 y(1,0,1) = 0.72	 
y(0,2,1) = 0.24	 y(2,0,1) = 0.76	 
y(1,2,1) = 0.57	 y(2,1,1) = 0.43	 
y(0,1,2) = 0.37	 y(1,0,2) = 0.63	 
y(0,2,2) = 0.21	 y(2,0,2) = 0.79	 
y(1,2,2) = 0.48	 y(2,1,2) = 0.52	 
{(1, 2), (0, 1), (2, 1), (1, 1), (2, 2), (1, 0), (0, 2)}
obj:  0.9740001218744736
solutions:  1
+ 0.025641025641025633x(1,2) + 0.02197802197802198x(2,2) + 0.025641025641025644x(0,2) 
[(1, 2), (0, 1), (2, 1), (1, 1), (2, 2), (1, 0), (0, 2)]
cliques:  1 mip: 51
C:  23.548040794417243
x(0,0) = 18.90	 x(0,1) = 2.90	 x(0,2) = 11.90	 
x(1,0) = 13.55	 x(1,1) = 9.55	 x(1,2) = 16.55	 
x(2,0) = 19.64	 x(2,1) = 6.64	 x(2,2) = 13.64	 
y(0,1,0) = 0.00	 y(1,0,0) = 1.00	 
y(0,2,0) = 0.73	 y(2,0,0) = 0.27	 
y(1,2,0) = 0.54	 y(2,1,0) = 0.46	 
y(0,1,1) = 0.46	 y(1,0,1) = 0.54	 
y(0,2,1) = 0.81	 y(2,0,1) = 0.19	 
y(1,2,1) = 0.68	 y(2,1,1) = 0.32	 
y(0,1,2) = 0.91	 y(1,0,2) = 0.09	 
y(0,2,2) = 0.32	 y(2,0,2) = 0.68	 
y(1,2,2) = 0.62	 y(2,1,2) = 0.38	 
{(0, 1), (1, 1), (2, 1)}
obj:  0.9999999999999999
erro
[(0, 1), (1, 1), (2, 1)]
cliques:  0 mip: 49
C:  24.198270126413846
x(0,0) = 22.92	 x(0,1) = 4.55	 x(0,2) = 15.92	 
x(1,0) = 6.20	 x(1,1) = 2.20	 x(1,2) = 9.20	 
x(2,0) = 22.20	 x(2,1) = 9.20	 x(2,2) = 16.20	 
y(0,1,0) = 0.00	 y(1,0,0) = 1.00	 
y(0,2,0) = 0.14	 y(2,0,0) = 0.86	 
y(1,2,0) = 0.80	 y(2,1,0) = 0.20	 
y(0,1,1) = 0.07	 y(1,0,1) = 0.93	 
y(0,2,1) = 0.66	 y(2,0,1) = 0.34	 
y(1,2,1) = 1.00	 y(2,1,1) = -0.00	 
y(0,1,2) = 0.45	 y(1,0,2) = 0.55	 
y(0,2,2) = 0.30	 y(2,0,2) = 0.70	 
y(1,2,2) = 1.00	 y(2,1,2) = -0.00	 
{(1, 2), (0, 1), (0, 0), (1, 0), (0, 2)}
obj:  1.1959889744320682
erro
[(1, 2), (0, 1), (0, 0), (1, 0), (0, 2)]
cliques:  0 mip: 39
C:  24.999999999999996
x(0,0) = 22.98	 x(0,1) = 4.93	 x(0,2) = 15.98	 
x(1,0) = 4.93	 x(1,1) = 0.93	 x(1,2) = 10.00	 
x(2,0) = 23.00	 x(2,1) = 9.53	 x(2,2) = 17.00	 
y(0,1,0) = 0.00	 y(1,0,0) = 1.00	 
y(0,2,0) = 0.51	 y(2,0,0) = 0.49	 
y(1,2,0) = 0.92	 y(2,1,0) = 0.08	 
y(0,1,1) = 0.00	 y(1,0,1) = 1.00	 
y(0,2,1) = 0.72	 y(2,0,1) = 0.28	 
y(1,2,1) = 0.92	 y(2,1,1) = 0.08	 
y(0,1,2) = 0.17	 y(1,0,2) = 0.83	 
y(0,2,2) = 0.29	 y(2,0,2) = 0.71	 
y(1,2,2) = 1.00	 y(2,1,2) = 0.00	 
{(2, 0), (0, 0), (0, 2), (2, 2)}
obj:  1.6038057593601818
erro
[(2, 0), (0, 0), (0, 2), (2, 2)]
cliques:  0 mip: 33
C:  25.0
x(0,0) = 24.00	 x(0,1) = 6.80	 x(0,2) = 17.00	 
x(1,0) = 7.80	 x(1,1) = 0.00	 x(1,2) = 10.80	 
x(2,0) = 21.20	 x(2,1) = 8.20	 x(2,2) = 15.20	 
y(0,1,0) = 0.00	 y(1,0,0) = 1.00	 
y(0,2,0) = 0.00	 y(2,0,0) = 1.00	 
y(1,2,0) = 0.89	 y(2,1,0) = 0.11	 
y(0,1,1) = 0.00	 y(1,0,1) = 1.00	 
y(0,2,1) = 0.46	 y(2,0,1) = 0.54	 
y(1,2,1) = 0.70	 y(2,1,1) = 0.30	 
y(0,1,2) = 0.10	 y(1,0,2) = 0.90	 
y(0,2,2) = 0.42	 y(2,0,2) = 0.58	 
y(1,2,2) = 0.90	 y(2,1,2) = 0.10	 
{(0, 1), (2, 1)}
obj:  2.1428571428571432
erro
[(0, 1), (2, 1)]
cliques:  0 mip: 39
C:  25.0
x(0,0) = 24.00	 x(0,1) = 8.78	 x(0,2) = 17.00	 
x(1,0) = 8.71	 x(1,1) = 4.71	 x(1,2) = 11.71	 
x(2,0) = 19.14	 x(2,1) = 6.14	 x(2,2) = 13.14	 
y(0,1,0) = 0.00	 y(1,0,0) = 1.00	 
y(0,2,0) = 0.00	 y(2,0,0) = 1.00	 
y(1,2,0) = 0.79	 y(2,1,0) = 0.21	 
y(0,1,1) = 0.00	 y(1,0,1) = 1.00	 
y(0,2,1) = 0.17	 y(2,0,1) = 0.83	 
y(1,2,1) = 0.36	 y(2,1,1) = 0.64	 
y(0,1,2) = 0.22	 y(1,0,2) = 0.78	 
y(0,2,2) = 0.22	 y(2,0,2) = 0.78	 
y(1,2,2) = 0.79	 y(2,1,2) = 0.21	 
{(0, 1), (1, 1), (2, 1)}
obj:  1.1743008314436878
erro
[(0, 1), (1, 1), (2, 1)]
cliques:  0 mip: 39
C:  24.999999999999996
x(0,0) = 24.00	 x(0,1) = 8.37	 x(0,2) = 17.00	 
x(1,0) = 7.78	 x(1,1) = 3.78	 x(1,2) = 10.78	 
x(2,0) = 21.25	 x(2,1) = 7.19	 x(2,2) = 15.25	 
y(0,1,0) = 0.00	 y(1,0,0) = 1.00	 
y(0,2,0) = 0.00	 y(2,0,0) = 1.00	 
y(1,2,0) = 0.89	 y(2,1,0) = 0.11	 
y(0,1,1) = 0.00	 y(1,0,1) = 1.00	 
y(0,2,1) = 0.23	 y(2,0,1) = 0.77	 
y(1,2,1) = 0.53	 y(2,1,1) = 0.47	 
y(0,1,2) = 0.10	 y(1,0,2) = 0.90	 
y(0,2,2) = 0.45	 y(2,0,2) = 0.55	 
y(1,2,2) = 0.90	 y(2,1,2) = 0.10	 
{(0, 1), (1, 1), (2, 1)}
obj:  1.1814606320018204
erro
[(0, 1), (1, 1), (2, 1)]
cliques:  0 mip: 40
C:  24.999999999999996
x(0,0) = 24.00	 x(0,1) = 6.40	 x(0,2) = 17.00	 
x(1,0) = 8.83	 x(1,1) = 2.93	 x(1,2) = 11.83	 
x(2,0) = 20.97	 x(2,1) = 6.93	 x(2,2) = 14.97	 
y(0,1,0) = 0.00	 y(1,0,0) = 1.00	 
y(0,2,0) = 0.00	 y(2,0,0) = 1.00	 
y(1,2,0) = 0.62	 y(2,1,0) = 0.38	 
y(0,1,1) = 0.02	 y(1,0,1) = 0.98	 
y(0,2,1) = 0.51	 y(2,0,1) = 0.49	 
y(1,2,1) = 0.49	 y(2,1,1) = 0.51	 
y(0,1,2) = 0.39	 y(1,0,2) = 0.61	 
y(0,2,2) = 0.40	 y(2,0,2) = 0.60	 
y(1,2,2) = 0.62	 y(2,1,2) = 0.38	 
{(0, 1), (1, 1), (2, 1)}
obj:  0.9999999999999997
erro
[(0, 1), (1, 1), (2, 1)]
cliques:  0 mip: 39
C:  24.999999999999996
x(0,0) = 24.00	 x(0,1) = 6.90	 x(0,2) = 17.00	 
x(1,0) = 8.19	 x(1,1) = 2.90	 x(1,2) = 11.19	 
x(2,0) = 21.10	 x(2,1) = 7.11	 x(2,2) = 15.10	 
y(0,1,0) = 0.00	 y(1,0,0) = 1.00	 
y(0,2,0) = 0.00	 y(2,0,0) = 1.00	 
y(1,2,0) = 0.62	 y(2,1,0) = 0.38	 
y(0,1,1) = 0.00	 y(1,0,1) = 1.00	 
y(0,2,1) = 0.44	 y(2,0,1) = 0.56	 
y(1,2,1) = 0.53	 y(2,1,1) = 0.47	 
y(0,1,2) = 0.39	 y(1,0,2) = 0.61	 
y(0,2,2) = 0.42	 y(2,0,2) = 0.58	 
y(1,2,2) = 0.62	 y(2,1,2) = 0.38	 
{(0, 1), (1, 1), (2, 1)}
obj:  1.0446904919389048
erro
[(0, 1), (1, 1), (2, 1)]
cliques:  0 mip: 37
C:  24.99999999999977
x(0,0) = 24.00	 x(0,1) = 6.21	 x(0,2) = 16.09	 
x(1,0) = 7.17	 x(1,1) = 3.17	 x(1,2) = 10.25	 
x(2,0) = 20.76	 x(2,1) = 7.76	 x(2,2) = 14.76	 
y(0,1,0) = 0.00	 y(1,0,0) = 1.00	 
y(0,2,0) = 0.00	 y(2,0,0) = 1.00	 
y(1,2,0) = 0.71	 y(2,1,0) = 0.29	 
y(0,1,1) = 0.40	 y(1,0,1) = 0.60	 
y(0,2,1) = 0.54	 y(2,0,1) = 0.46	 
y(1,2,1) = 0.63	 y(2,1,1) = 0.37	 
y(0,1,2) = 0.30	 y(1,0,2) = 0.70	 
y(0,2,2) = 0.44	 y(2,0,2) = 0.56	 
y(1,2,2) = 0.71	 y(2,1,2) = 0.29	 
{(0, 1), (1, 1), (2, 1)}
obj:  1.0524285560234248
erro
[(0, 1), (1, 1), (2, 1)]
cliques:  0 mip: 43
C:  24.999999999999996
x(0,0) = 24.00	 x(0,1) = 7.90	 x(0,2) = 14.90	 
x(1,0) = 6.77	 x(1,1) = 0.81	 x(1,2) = 10.90	 
x(2,0) = 21.40	 x(2,1) = 8.40	 x(2,2) = 15.40	 
y(0,1,0) = 0.00	 y(1,0,0) = 1.00	 
y(0,2,0) = 0.00	 y(2,0,0) = 1.00	 
y(1,2,0) = 0.75	 y(2,1,0) = 0.25	 
y(0,1,1) = 0.00	 y(1,0,1) = 1.00	 
y(0,2,1) = 0.30	 y(2,0,1) = 0.70	 
y(1,2,1) = 0.73	 y(2,1,1) = 0.27	 
y(0,1,2) = 0.32	 y(1,0,2) = 0.68	 
y(0,2,2) = 0.67	 y(2,0,2) = 0.33	 
y(1,2,2) = 0.69	 y(2,1,2) = 0.31	 
{(0, 1), (1, 2), (2, 1), (2, 2), (0, 2)}
obj:  1.0
erro
[(0, 1), (1, 2), (2, 1), (2, 2), (0, 2)]
cliques:  0 mip: 40
C:  24.999999999999996
x(0,0) = 24.00	 x(0,1) = 6.26	 x(0,2) = 14.79	 
x(1,0) = 5.97	 x(1,1) = 1.12	 x(1,2) = 11.81	 
x(2,0) = 21.71	 x(2,1) = 8.64	 x(2,2) = 15.71	 
y(0,1,0) = 0.00	 y(1,0,0) = 1.00	 
y(0,2,0) = 0.00	 y(2,0,0) = 1.00	 
y(1,2,0) = 0.82	 y(2,1,0) = 0.18	 
y(0,1,1) = 0.01	 y(1,0,1) = 0.99	 
y(0,2,1) = 0.53	 y(2,0,1) = 0.47	 
y(1,2,1) = 0.77	 y(2,1,1) = 0.23	 
y(0,1,2) = 0.26	 y(1,0,2) = 0.74	 
y(0,2,2) = 0.72	 y(2,0,2) = 0.28	 
y(1,2,2) = 0.74	 y(2,1,2) = 0.26	 
{(0, 1), (2, 1)}
obj:  2.1283685362201377
erro
[(0, 1), (2, 1)]
cliques:  0 mip: 44
C:  25.0
x(0,0) = 24.00	 x(0,1) = 7.33	 x(0,2) = 16.34	 
x(1,0) = 7.42	 x(1,1) = 1.30	 x(1,2) = 11.18	 
x(2,0) = 20.17	 x(2,1) = 7.06	 x(2,2) = 14.17	 
y(0,1,0) = 0.00	 y(1,0,0) = 1.00	 
y(0,2,0) = 0.00	 y(2,0,0) = 1.00	 
y(1,2,0) = 0.69	 y(2,1,0) = 0.31	 
y(0,1,1) = 0.12	 y(1,0,1) = 0.88	 
y(0,2,1) = 0.38	 y(2,0,1) = 0.62	 
y(1,2,1) = 0.51	 y(2,1,1) = 0.49	 
y(0,1,2) = 0.32	 y(1,0,2) = 0.68	 
y(0,2,2) = 0.38	 y(2,0,2) = 0.62	 
y(1,2,2) = 0.69	 y(2,1,2) = 0.31	 
{(0, 1), (1, 1), (2, 1)}
obj:  1.0092280817431285
erro
[(0, 1), (1, 1), (2, 1)]
cliques:  0 mip: 45
C:  25.0
x(0,0) = 24.00	 x(0,1) = 7.19	 x(0,2) = 15.78	 
x(1,0) = 8.60	 x(1,1) = 2.06	 x(1,2) = 12.34	 
x(2,0) = 20.24	 x(2,1) = 7.24	 x(2,2) = 14.24	 
y(0,1,0) = 0.00	 y(1,0,0) = 1.00	 
y(0,2,0) = 0.00	 y(2,0,0) = 1.00	 
y(1,2,0) = 0.58	 y(2,1,0) = 0.42	 
y(0,1,1) = 0.07	 y(1,0,1) = 0.93	 
y(0,2,1) = 0.40	 y(2,0,1) = 0.60	 
y(1,2,1) = 0.78	 y(2,1,1) = 0.22	 
y(0,1,2) = 0.43	 y(1,0,2) = 0.57	 
y(0,2,2) = 0.45	 y(2,0,2) = 0.55	 
y(1,2,2) = 0.58	 y(2,1,2) = 0.42	 
{(0, 1), (1, 2), (2, 1), (2, 2), (0, 2)}
obj:  1.0338846289352839
erro
[(0, 1), (1, 2), (2, 1), (2, 2), (0, 2)]
cliques:  0 mip: 44
C:  24.999999999999996
x(0,0) = 24.00	 x(0,1) = 7.05	 x(0,2) = 14.66	 
x(1,0) = 6.87	 x(1,1) = 0.39	 x(1,2) = 11.67	 
x(2,0) = 21.57	 x(2,1) = 8.57	 x(2,2) = 15.57	 
y(0,1,0) = 0.00	 y(1,0,0) = 1.00	 
y(0,2,0) = 0.00	 y(2,0,0) = 1.00	 
y(1,2,0) = 0.74	 y(2,1,0) = 0.26	 
y(0,1,1) = 0.24	 y(1,0,1) = 0.76	 
y(0,2,1) = 0.42	 y(2,0,1) = 0.58	 
y(1,2,1) = 0.91	 y(2,1,1) = 0.09	 
y(0,1,2) = 0.27	 y(1,0,2) = 0.73	 
y(0,2,2) = 0.71	 y(2,0,2) = 0.29	 
y(1,2,2) = 0.74	 y(2,1,2) = 0.26	 
{(0, 1), (2, 1)}
obj:  2.2312452572278643
erro
[(0, 1), (2, 1)]
cliques:  0 mip: 44
C:  24.999999999999996
x(0,0) = 24.00	 x(0,1) = 8.05	 x(0,2) = 15.69	 
x(1,0) = 10.58	 x(1,1) = 0.44	 x(1,2) = 13.58	 
x(2,0) = 20.69	 x(2,1) = 7.37	 x(2,2) = 14.69	 
y(0,1,0) = 0.00	 y(1,0,0) = 1.00	 
y(0,2,0) = 0.00	 y(2,0,0) = 1.00	 
y(1,2,0) = 0.55	 y(2,1,0) = 0.45	 
y(0,1,1) = 0.00	 y(1,0,1) = 1.00	 
y(0,2,1) = 0.28	 y(2,0,1) = 0.72	 
y(1,2,1) = 0.73	 y(2,1,1) = 0.27	 
y(0,1,2) = 0.46	 y(1,0,2) = 0.54	 
y(0,2,2) = 0.49	 y(2,0,2) = 0.51	 
y(1,2,2) = 0.55	 y(2,1,2) = 0.45	 
{(0, 1), (1, 2), (2, 1), (2, 2), (0, 2)}
obj:  1.0733622444401436
erro
[(0, 1), (1, 2), (2, 1), (2, 2), (0, 2)]
cliques:  0 mip: 43
C:  24.999999999999996
x(0,0) = 24.00	 x(0,1) = 8.55	 x(0,2) = 16.36	 
x(1,0) = 12.13	 x(1,1) = 1.38	 x(1,2) = 15.13	 
x(2,0) = 19.79	 x(2,1) = 6.52	 x(2,2) = 13.79	 
y(0,1,0) = 0.00	 y(1,0,0) = 1.00	 
y(0,2,0) = 0.00	 y(2,0,0) = 1.00	 
y(1,2,0) = 0.36	 y(2,1,0) = 0.64	 
y(0,1,1) = 0.06	 y(1,0,1) = 0.94	 
y(0,2,1) = 0.21	 y(2,0,1) = 0.79	 
y(1,2,1) = 0.49	 y(2,1,1) = 0.51	 
y(0,1,2) = 0.66	 y(1,0,2) = 0.34	 
y(0,2,2) = 0.32	 y(2,0,2) = 0.68	 
y(1,2,2) = 0.36	 y(2,1,2) = 0.64	 
{(0, 1), (1, 1), (2, 1)}
obj:  1.0567285445910413
erro
[(0, 1), (1, 1), (2, 1)]
cliques:  0 mip: 46
C:  24.999999999999996
x(0,0) = 24.00	 x(0,1) = 7.83	 x(0,2) = 15.60	 
x(1,0) = 11.08	 x(1,1) = 1.20	 x(1,2) = 14.08	 
x(2,0) = 20.20	 x(2,1) = 7.20	 x(2,2) = 14.20	 
y(0,1,0) = 0.00	 y(1,0,0) = 1.00	 
y(0,2,0) = 0.00	 y(2,0,0) = 1.00	 
y(1,2,0) = 0.48	 y(2,1,0) = 0.52	 
y(0,1,1) = 0.03	 y(1,0,1) = 0.97	 
y(0,2,1) = 0.31	 y(2,0,1) = 0.69	 
y(1,2,1) = 1.00	 y(2,1,1) = 0.00	 
y(0,1,2) = 0.51	 y(1,0,2) = 0.49	 
y(0,2,2) = 0.45	 y(2,0,2) = 0.55	 
y(1,2,2) = 0.49	 y(2,1,2) = 0.51	 
{(1, 2), (1, 0), (0, 1), (0, 2)}
obj:  1.413311022431851
erro
[(1, 2), (1, 0), (0, 1), (0, 2)]
cliques:  0 mip: 43
C:  25.0
x(0,0) = 24.00	 x(0,1) = 8.61	 x(0,2) = 17.00	 
x(1,0) = 11.52	 x(1,1) = 1.52	 x(1,2) = 14.52	 
x(2,0) = 19.57	 x(2,1) = 6.57	 x(2,2) = 13.57	 
y(0,1,0) = 0.00	 y(1,0,0) = 1.00	 
y(0,2,0) = -0.00	 y(2,0,0) = 1.00	 
y(1,2,0) = 0.38	 y(2,1,0) = 0.62	 
y(0,1,1) = 0.00	 y(1,0,1) = 1.00	 
y(0,2,1) = 0.20	 y(2,0,1) = 0.80	 
y(1,2,1) = 0.95	 y(2,1,1) = 0.05	 
y(0,1,2) = 0.62	 y(1,0,2) = 0.38	 
y(0,2,2) = 0.24	 y(2,0,2) = 0.76	 
y(1,2,2) = 0.38	 y(2,1,2) = 0.62	 
{(1, 2), (1, 0), (0, 1), (0, 2)}
obj:  1.5008288859422874
erro
[(1, 2), (1, 0), (0, 1), (0, 2)]
cliques:  0 mip: 40
C:  25.0
x(0,0) = 24.00	 x(0,1) = 8.47	 x(0,2) = 17.00	 
x(1,0) = 9.74	 x(1,1) = 1.76	 x(1,2) = 12.74	 
x(2,0) = 19.94	 x(2,1) = 6.94	 x(2,2) = 13.94	 
y(0,1,0) = 0.00	 y(1,0,0) = 1.00	 
y(0,2,0) = -0.00	 y(2,0,0) = 1.00	 
y(1,2,0) = 0.48	 y(2,1,0) = 0.52	 
y(0,1,1) = 0.02	 y(1,0,1) = 0.98	 
y(0,2,1) = 0.22	 y(2,0,1) = 0.78	 
y(1,2,1) = 0.94	 y(2,1,1) = 0.06	 
y(0,1,2) = 0.11	 y(1,0,2) = 0.89	 
y(0,2,2) = 0.28	 y(2,0,2) = 0.72	 
y(1,2,2) = 0.48	 y(2,1,2) = 0.52	 
{(1, 2), (0, 1), (2, 1), (2, 2), (1, 0), (0, 2)}
obj:  1.0689373335929937
erro
[(1, 2), (0, 1), (2, 1), (2, 2), (1, 0), (0, 2)]
cliques:  0 mip: 43
C:  25.0
x(0,0) = 24.00	 x(0,1) = 7.29	 x(0,2) = 17.00	 
x(1,0) = 8.01	 x(1,1) = 1.85	 x(1,2) = 12.64	 
x(2,0) = 20.38	 x(2,1) = 6.66	 x(2,2) = 14.38	 
y(0,1,0) = 0.00	 y(1,0,0) = 1.00	 
y(0,2,0) = 0.00	 y(2,0,0) = 1.00	 
y(1,2,0) = 0.64	 y(2,1,0) = 0.36	 
y(0,1,1) = 0.00	 y(1,0,1) = 1.00	 
y(0,2,1) = 0.39	 y(2,0,1) = 0.61	 
y(1,2,1) = 0.99	 y(2,1,1) = 0.01	 
y(0,1,2) = 0.34	 y(1,0,2) = 0.66	 
y(0,2,2) = 0.34	 y(2,0,2) = 0.66	 
y(1,2,2) = 0.57	 y(2,1,2) = 0.43	 
{(1, 2), (0, 1), (2, 1), (2, 2), (1, 0), (0, 2)}
obj:  1.0758762563721551
erro
[(1, 2), (0, 1), (2, 1), (2, 2), (1, 0), (0, 2)]
cliques:  0 mip: 41
C:  25.0
x(0,0) = 23.81	 x(0,1) = 6.44	 x(0,2) = 16.81	 
x(1,0) = 8.48	 x(1,1) = 2.90	 x(1,2) = 12.32	 
x(2,0) = 20.52	 x(2,1) = 6.90	 x(2,2) = 14.52	 
y(0,1,0) = 0.00	 y(1,0,0) = 1.00	 
y(0,2,0) = 0.00	 y(2,0,0) = 1.00	 
y(1,2,0) = 0.59	 y(2,1,0) = 0.41	 
y(0,1,1) = 0.02	 y(1,0,1) = 0.98	 
y(0,2,1) = 0.36	 y(2,0,1) = 0.64	 
y(1,2,1) = 1.00	 y(2,1,1) = 0.00	 
y(0,1,2) = 0.37	 y(1,0,2) = 0.63	 
y(0,2,2) = 0.37	 y(2,0,2) = 0.63	 
y(1,2,2) = 0.50	 y(2,1,2) = 0.50	 
{(1, 2), (0, 1), (2, 1), (2, 2), (1, 0), (0, 2)}
obj:  1.0660218424256578
erro
[(1, 2), (0, 1), (2, 1), (2, 2), (1, 0), (0, 2)]
cliques:  0 mip: 41
C:  24.999999999999996
x(0,0) = 23.26	 x(0,1) = 8.07	 x(0,2) = 16.26	 
x(1,0) = 11.33	 x(1,1) = 1.86	 x(1,2) = 14.33	 
x(2,0) = 19.06	 x(2,1) = 5.86	 x(2,2) = 13.06	 
y(0,1,0) = 0.00	 y(1,0,0) = 1.00	 
y(0,2,0) = 0.00	 y(2,0,0) = 1.00	 
y(1,2,0) = 0.42	 y(2,1,0) = 0.58	 
y(0,1,1) = 0.00	 y(1,0,1) = 1.00	 
y(0,2,1) = 0.23	 y(2,0,1) = 0.77	 
y(1,2,1) = 1.00	 y(2,1,1) = 0.00	 
y(0,1,2) = 0.46	 y(1,0,2) = 0.54	 
y(0,2,2) = 0.26	 y(2,0,2) = 0.74	 
y(1,2,2) = 0.42	 y(2,1,2) = 0.58	 
{(1, 2), (1, 0), (0, 1), (0, 2)}
obj:  1.4566118242557438
erro
[(1, 2), (1, 0), (0, 1), (0, 2)]
cliques:  0 mip: 38
C:  24.999999999999996
x(0,0) = 23.40	 x(0,1) = 8.48	 x(0,2) = 16.40	 
x(1,0) = 8.74	 x(1,1) = 1.26	 x(1,2) = 11.74	 
x(2,0) = 18.80	 x(2,1) = 5.80	 x(2,2) = 12.80	 
y(0,1,0) = 0.00	 y(1,0,0) = 1.00	 
y(0,2,0) = 0.00	 y(2,0,0) = 1.00	 
y(1,2,0) = 0.57	 y(2,1,0) = 0.43	 
y(0,1,1) = 0.23	 y(1,0,1) = 0.77	 
y(0,2,1) = 0.19	 y(2,0,1) = 0.81	 
y(1,2,1) = 1.00	 y(2,1,1) = 0.00	 
y(0,1,2) = 0.34	 y(1,0,2) = 0.66	 
y(0,2,2) = 0.23	 y(2,0,2) = 0.77	 
y(1,2,2) = 0.57	 y(2,1,2) = 0.43	 
{(1, 2), (0, 1), (2, 1), (2, 2), (1, 0), (0, 2)}
obj:  1.0031122233080367
erro
[(1, 2), (0, 1), (2, 1), (2, 2), (1, 0), (0, 2)]
cliques:  0 mip: 0
iterações: 26 cortes cliques encontrados: 3 mip: 1031 objective:  24.999999999999996
Coin0506I Presolve 65 (-61) rows, 39 (-25) columns and 202 (-86) elements
Clp1000I sum of infeasibilities 3.24924e-06 - average 4.99884e-08, 0 fixed columns
Coin0506I Presolve 65 (0) rows, 39 (0) columns and 202 (0) elements
Clp0029I End of values pass after 39 iterations
Clp0000I Optimal - objective value 15
Clp0000I Optimal - objective value 15
Coin0511I After Postsolve, objective 15, infeasibilities - dual 0 (0), primal 0 (0)
Clp0000I Optimal - objective value 15
Clp0000I Optimal - objective value 15
Clp0000I Optimal - objective value 15
Coin0511I After Postsolve, objective 15, infeasibilities - dual 0 (0), primal 0 (0)
Clp0032I Optimal objective 15 - 0 iterations time 0.002, Presolve 0.00, Idiot 0.00
Coin3009W Conflict graph built in 0.000 seconds, density: 0.147%
